Version identifier: 22.1.0.0 | 2022-03-09 | 1a383f8ce
CPXPARAM_Read_DataCheck                          1
CPXPARAM_TimeLimit                               600
1 of 1 MIP starts provided solutions.
MIP start 'm1' defined initial solution with objective 70.0000.
Tried aggregator 3 times.
MIP Presolve eliminated 145102 rows and 10925 columns.
MIP Presolve modified 1475 coefficients.
Aggregator did 136190 substitutions.
Reduced MIP has 12430 rows, 139325 columns, and 291361 nonzeros.
Reduced MIP has 139281 binaries, 44 generals, 0 SOSs, and 0 indicators.
Presolve time = 1.92 sec. (1914.15 ticks)
Tried aggregator 1 time.
Detecting symmetries...
Reduced MIP has 12430 rows, 139325 columns, and 291361 nonzeros.
Reduced MIP has 139281 binaries, 44 generals, 0 SOSs, and 0 indicators.
Presolve time = 0.40 sec. (233.71 ticks)
Probing fixed 66 vars, tightened 0 bounds.
Probing changed sense of 15 constraints.
Probing time = 0.25 sec. (34.65 ticks)
Clique table members: 281795.
MIP emphasis: balance optimality and feasibility.
MIP search method: dynamic search.
Parallel mode: deterministic, using up to 8 threads.
Root relaxation solution time = 1.16 sec. (848.99 ticks)

        Nodes                                         Cuts/
   Node  Left     Objective  IInf  Best Integer    Best Bound    ItCnt     Gap

*     0+    0                           70.0000        0.0000           100.00%
      0     0       44.3859  9007       70.0000       44.3859       28   36.59%
      0     0        cutoff             70.0000                     54    0.00%
Elapsed time = 18.65 sec. (17824.27 ticks, tree = 0.01 MB, solutions = 1)

Zero-half cuts applied:  9
Gomory fractional cuts applied:  26

Root node processing (before b&c):
  Real time             =   18.66 sec. (17833.99 ticks)
Parallel b&c, 8 threads:
  Real time             =    0.00 sec. (0.00 ticks)
  Sync time (average)   =    0.00 sec.
  Wait time (average)   =    0.00 sec.
                          ------------
Total (root+branch&cut) =   18.66 sec. (17833.99 ticks)
